db/data/7742123079133049519225271622802511685.z3.out
sat
-------------------
14.634595951
